(set-logic ALL)
(declare-const value String)
(declare-const arg String)
(assert (str.contains arg "."))
(assert (not (< (str.len arg) 0)))
(assert (str.prefixof "_(" arg))
(assert (not (< (str.len arg) 0)))
(assert (str.suffixof ")" arg))
(assert (not (< (+ (- 1) (str.len arg)) 0)))
(assert (not (< (str.len (str.substr arg 2 (- (+ (- 1) (str.len arg)) 2))) 0)))
(assert (not (> (+ 0 (str.indexof (str.substr arg 2 (- (+ (- 1) (str.len arg)) 2)) "._" 0)) (- 1))))
(assert (not (= (str.at (str.substr arg 2 (- (+ (- 1) (str.len arg)) 2)) 0) "_")))
(assert (not (< (str.len (str.substr arg 2 (- (+ (- 1) (str.len arg)) 2))) 0)))
(assert (not (= (+ 0 (str.indexof (str.substr arg 2 (- (+ (- 1) (str.len arg)) 2)) "." 0)) (- 1))))
(assert (not (< (+ 0 (str.indexof (str.substr arg 2 (- (+ (- 1) (str.len arg)) 2)) "." 0)) 0)))
(assert (< (+ (+ 0 (str.indexof (str.substr arg 2 (- (+ (- 1) (str.len arg)) 2)) "." 0)) 1) 0))
(check-sat)
(get-value (value))
(get-value (arg))
